WARNING: for repeatability, setting FPU to use double precision
============================[ Problem Statistics ]=============================
|                                                                             |
|  Number of variables:            50                                         |
|  Number of clauses:             218                                         |
|  Parse time:                   0.00 s                                       |
|                                                                             |
============================[ Search Statistics ]==============================
| Conflicts |          ORIGINAL         |          LEARNT          | Progress |
|           |    Vars  Clauses Literals |    Limit  Clauses Lit/Cl |          |
===============================================================================
===============================================================================
restarts              : 1
conflicts             : 20             (99502 /sec)
decisions             : 37             (0.00 % random) (184080 /sec)
propagations          : 368            (1830846 /sec)
conflict literals     : 74             (10.84 % deleted)
Memory used           : 20.00 MB
CPU time              : 0.000201 s

SATISFIABLE
